true true true
presolving:
presolving (0 rounds: 0 fast, 0 medium, 0 exhaustive):
 0 deleted vars, 0 deleted constraints, 0 added constraints, 0 tightened bounds, 0 added holes, 0 changed sides, 0 changed coefficients
 0 implications, 0 cliques
presolved problem has 46 variables (46 bin, 0 int, 0 impl, 0 cont) and 39 constraints
     39 constraints of type <linear>
transformed objective value is always integral (scale: 1)
Presolving Time: 0.00

 time | node  | left  |LP iter|LP it/n|mem/heur|mdpt |vars |cons |rows |cuts |sepa|confs|strbr|  dualbound   | primalbound  |  gap   | compl. 
p 0.0s|     1 |     0 |     0 |     - |shiftand|   0 |  46 |  39 |  39 |   0 |  0 |   0 |   0 |      --      | 7.000000e+00 |    Inf | unknown
 time | node  | left  |LP iter|LP it/n|mem/heur|mdpt |vars |cons |rows |cuts |sepa|confs|strbr|  dualbound   | primalbound  |  gap   | compl. 
  0.0s|     1 |     0 |    30 |     - |  3025k |   0 | 691 |  39 |  39 |   0 |  0 |   0 |   0 | 1.000000e+00 | 7.000000e+00 | 600.00%| unknown
 time | node  | left  |LP iter|LP it/n|mem/heur|mdpt |vars |cons |rows |cuts |sepa|confs|strbr|  dualbound   | primalbound  |  gap   | compl. 
  5.4s|     1 |     0 |   569 |     - |  9672k |   0 |2543 |  39 |  39 |   0 |  0 |   0 |   0 | 6.000000e+00 | 7.000000e+00 |  16.67%| unknown
 time | node  | left  |LP iter|LP it/n|mem/heur|mdpt |vars |cons |rows |cuts |sepa|confs|strbr|  dualbound   | primalbound  |  gap   | compl. 
  5.7s|     1 |     2 |  1518 |     - |    10M |   0 |2543 |  39 |  39 |   0 |  1 |   0 |   0 | 6.000000e+00 | 7.000000e+00 |  16.67%| unknown
 time | node  | left  |LP iter|LP it/n|mem/heur|mdpt |vars |cons |rows |cuts |sepa|confs|strbr|  dualbound   | primalbound  |  gap   | compl. 
  5.7s|     2 |     3 |  1527 |   9.0 |    10M |   1 |2543 |  39 |  39 |   0 |  1 |   0 |   0 | 6.000000e+00 | 7.000000e+00 |  16.67%| unknown
 time | node  | left  |LP iter|LP it/n|mem/heur|mdpt |vars |cons |rows |cuts |sepa|confs|strbr|  dualbound   | primalbound  |  gap   | compl. 
  5.8s|     3 |     4 |  1561 |  21.5 |    11M |   1 |2543 |  39 |  39 |   0 |  1 |   0 |   0 | 6.000000e+00 | 7.000000e+00 |  16.67%| unknown
 time | node  | left  |LP iter|LP it/n|mem/heur|mdpt |vars |cons |rows |cuts |sepa|confs|strbr|  dualbound   | primalbound  |  gap   | compl. 
  5.9s|     4 |     5 |  1586 |  22.7 |    11M |   2 |2543 |  39 |  39 |   0 |  1 |   0 |   0 | 6.000000e+00 | 7.000000e+00 |  16.67%| unknown
 time | node  | left  |LP iter|LP it/n|mem/heur|mdpt |vars |cons |rows |cuts |sepa|confs|strbr|  dualbound   | primalbound  |  gap   | compl. 
  5.9s|     5 |     6 |  1593 |  18.8 |    11M |   3 |2543 |  39 |  39 |   0 |  1 |   0 |   0 | 6.000000e+00 | 7.000000e+00 |  16.67%| unknown
 time | node  | left  |LP iter|LP it/n|mem/heur|mdpt |vars |cons |rows |cuts |sepa|confs|strbr|  dualbound   | primalbound  |  gap   | compl. 
  6.1s|     6 |     7 |  1664 |  29.2 |    11M |   3 |2543 |  39 |  39 |   0 |  1 |   0 |   0 | 6.000000e+00 | 7.000000e+00 |  16.67%| unknown
 time | node  | left  |LP iter|LP it/n|mem/heur|mdpt |vars |cons |rows |cuts |sepa|confs|strbr|  dualbound   | primalbound  |  gap   | compl. 
  6.2s|     7 |     8 |  1686 |  28.0 |    11M |   4 |2543 |  39 |  39 |   0 |  1 |   0 |   0 | 6.000000e+00 | 7.000000e+00 |  16.67%| unknown
 time | node  | left  |LP iter|LP it/n|mem/heur|mdpt |vars |cons |rows |cuts |sepa|confs|strbr|  dualbound   | primalbound  |  gap   | compl. 
  6.3s|     8 |     9 |  1731 |  30.4 |    11M |   4 |2543 |  39 |  39 |   0 |  1 |   0 |   0 | 6.000000e+00 | 7.000000e+00 |  16.67%| unknown
 time | node  | left  |LP iter|LP it/n|mem/heur|mdpt |vars |cons |rows |cuts |sepa|confs|strbr|  dualbound   | primalbound  |  gap   | compl. 
  6.5s|     9 |    10 |  1739 |  27.6 |    11M |   5 |2543 |  39 |  39 |   0 |  1 |   0 |   0 | 6.000000e+00 | 7.000000e+00 |  16.67%| unknown
 time | node  | left  |LP iter|LP it/n|mem/heur|mdpt |vars |cons |rows |cuts |sepa|confs|strbr|  dualbound   | primalbound  |  gap   | compl. 
  6.6s|    10 |    11 |  1740 |  24.7 |    11M |   6 |2543 |  39 |  39 |   0 |  1 |   0 |   0 | 6.000000e+00 | 7.000000e+00 |  16.67%| unknown
 time | node  | left  |LP iter|LP it/n|mem/heur|mdpt |vars |cons |rows |cuts |sepa|confs|strbr|  dualbound   | primalbound  |  gap   | compl. 
  6.8s|    11 |    12 |  1758 |  24.0 |    11M |   7 |2543 |  39 |  39 |   0 |  1 |   0 |   0 | 6.000000e+00 | 7.000000e+00 |  16.67%| unknown
 time | node  | left  |LP iter|LP it/n|mem/heur|mdpt |vars |cons |rows |cuts |sepa|confs|strbr|  dualbound   | primalbound  |  gap   | compl. 
  6.9s|    12 |    13 |  1802 |  25.8 |    11M |   8 |2543 |  39 |  39 |   0 |  1 |   0 |   0 | 6.000000e+00 | 7.000000e+00 |  16.67%| unknown
 time | node  | left  |LP iter|LP it/n|mem/heur|mdpt |vars |cons |rows |cuts |sepa|confs|strbr|  dualbound   | primalbound  |  gap   | compl. 
  7.1s|    13 |    14 |  1838 |  26.7 |    11M |   8 |2543 |  39 |  39 |   0 |  1 |   0 |   0 | 6.000000e+00 | 7.000000e+00 |  16.67%| unknown
 time | node  | left  |LP iter|LP it/n|mem/heur|mdpt |vars |cons |rows |cuts |sepa|confs|strbr|  dualbound   | primalbound  |  gap   | compl. 
  7.2s|    14 |    15 |  1848 |  25.4 |    11M |   9 |2543 |  39 |  39 |   0 |  1 |   0 |   0 | 6.000000e+00 | 7.000000e+00 |  16.67%| unknown
 time | node  | left  |LP iter|LP it/n|mem/heur|mdpt |vars |cons |rows |cuts |sepa|confs|strbr|  dualbound   | primalbound  |  gap   | compl. 
  7.4s|    15 |    16 |  1851 |  23.8 |    11M |  10 |2543 |  39 |  39 |   0 |  1 |   0 |   0 | 6.000000e+00 | 7.000000e+00 |  16.67%| unknown
 time | node  | left  |LP iter|LP it/n|mem/heur|mdpt |vars |cons |rows |cuts |sepa|confs|strbr|  dualbound   | primalbound  |  gap   | compl. 
  7.6s|    16 |    17 |  1861 |  22.9 |    11M |  11 |2543 |  39 |  39 |   0 |  1 |   0 |   0 | 6.000000e+00 | 7.000000e+00 |  16.67%| unknown
 time | node  | left  |LP iter|LP it/n|mem/heur|mdpt |vars |cons |rows |cuts |sepa|confs|strbr|  dualbound   | primalbound  |  gap   | compl. 
  7.8s|    17 |    18 |  2032 |  32.1 |    11M |  12 |2543 |  39 |  39 |   0 |  1 |   0 |   0 | 6.000000e+00 | 7.000000e+00 |  16.67%| unknown
 time | node  | left  |LP iter|LP it/n|mem/heur|mdpt |vars |cons |rows |cuts |sepa|confs|strbr|  dualbound   | primalbound  |  gap   | compl. 
  8.1s|    18 |    19 |  2251 |  43.1 |    13M |  12 |3067 |  39 |  39 |   0 |  1 |   0 |   0 | 6.000000e+00 | 7.000000e+00 |  16.67%| unknown
 time | node  | left  |LP iter|LP it/n|mem/heur|mdpt |vars |cons |rows |cuts |sepa|confs|strbr|  dualbound   | primalbound  |  gap   | compl. 
  8.3s|    19 |    20 |  2333 |  45.3 |    13M |  12 |3095 |  39 |  39 |   0 |  1 |   0 |   0 | 6.000000e+00 | 7.000000e+00 |  16.67%| unknown
 time | node  | left  |LP iter|LP it/n|mem/heur|mdpt |vars |cons |rows |cuts |sepa|confs|strbr|  dualbound   | primalbound  |  gap   | compl. 
  8.6s|    20 |    21 |  2350 |  43.8 |    13M |  12 |3095 |  39 |  39 |   0 |  1 |   0 |   0 | 6.000000e+00 | 7.000000e+00 |  16.67%| unknown
 time | node  | left  |LP iter|LP it/n|mem/heur|mdpt |vars |cons |rows |cuts |sepa|confs|strbr|  dualbound   | primalbound  |  gap   | compl. 
  8.8s|    21 |    22 |  2356 |  41.9 |    13M |  13 |3095 |  39 |  39 |   0 |  1 |   0 |   0 | 6.000000e+00 | 7.000000e+00 |  16.67%| unknown
 time | node  | left  |LP iter|LP it/n|mem/heur|mdpt |vars |cons |rows |cuts |sepa|confs|strbr|  dualbound   | primalbound  |  gap   | compl. 
  9.1s|    22 |    23 |  2448 |  44.3 |    13M |  14 |3095 |  39 |  39 |   0 |  1 |   0 |   0 | 6.000000e+00 | 7.000000e+00 |  16.67%| unknown
 time | node  | left  |LP iter|LP it/n|mem/heur|mdpt |vars |cons |rows |cuts |sepa|confs|strbr|  dualbound   | primalbound  |  gap   | compl. 
  9.3s|    23 |    22 |  2468 |  43.2 |    13M |  14 |3096 |  39 |  39 |   0 |  0 |   0 |   0 | 6.000000e+00 | 7.000000e+00 |  16.67%| unknown
 time | node  | left  |LP iter|LP it/n|mem/heur|mdpt |vars |cons |rows |cuts |sepa|confs|strbr|  dualbound   | primalbound  |  gap   | compl. 
  9.8s|    24 |    23 |  2537 |  44.3 |    13M |  14 |3190 |  39 |  39 |   0 |  1 |   0 |   0 | 6.000000e+00 | 7.000000e+00 |  16.67%| unknown
 time | node  | left  |LP iter|LP it/n|mem/heur|mdpt |vars |cons |rows |cuts |sepa|confs|strbr|  dualbound   | primalbound  |  gap   | compl. 
 10.0s|    25 |    24 |  2551 |  43.0 |    13M |  14 |3190 |  39 |  39 |   0 |  1 |   0 |   0 | 6.000000e+00 | 7.000000e+00 |  16.67%| unknown
 time | node  | left  |LP iter|LP it/n|mem/heur|mdpt |vars |cons |rows |cuts |sepa|confs|strbr|  dualbound   | primalbound  |  gap   | compl. 
 10.6s|    26 |    23 |  2620 |  44.1 |    13M |  15 |3228 |  39 |  39 |   0 |  0 |   0 |   0 | 6.000000e+00 | 7.000000e+00 |  16.67%| unknown
 time | node  | left  |LP iter|LP it/n|mem/heur|mdpt |vars |cons |rows |cuts |sepa|confs|strbr|  dualbound   | primalbound  |  gap   | compl. 
 10.9s|    27 |    24 |  2649 |  43.5 |    13M |  15 |3235 |  39 |  39 |   0 |  1 |   0 |   0 | 6.000000e+00 | 7.000000e+00 |  16.67%| unknown
 time | node  | left  |LP iter|LP it/n|mem/heur|mdpt |vars |cons |rows |cuts |sepa|confs|strbr|  dualbound   | primalbound  |  gap   | compl. 
 11.2s|    28 |    25 |  2668 |  42.6 |    14M |  16 |3253 |  39 |  39 |   0 |  1 |   0 |   0 | 6.000000e+00 | 7.000000e+00 |  16.67%| unknown
 time | node  | left  |LP iter|LP it/n|mem/heur|mdpt |vars |cons |rows |cuts |sepa|confs|strbr|  dualbound   | primalbound  |  gap   | compl. 
 11.7s|    29 |    24 |  2811 |  46.2 |    14M |  16 |3447 |  39 |  39 |   0 |  0 |   0 |   0 | 6.000000e+00 | 7.000000e+00 |  16.67%| unknown
 time | node  | left  |LP iter|LP it/n|mem/heur|mdpt |vars |cons |rows |cuts |sepa|confs|strbr|  dualbound   | primalbound  |  gap   | compl. 
 12.0s|    30 |    23 |  2849 |  45.9 |    14M |  16 |3489 |  39 |  39 |   0 |  0 |   0 |   0 | 6.000000e+00 | 7.000000e+00 |  16.67%| unknown
 time | node  | left  |LP iter|LP it/n|mem/heur|mdpt |vars |cons |rows |cuts |sepa|confs|strbr|  dualbound   | primalbound  |  gap   | compl. 
 12.1s|    31 |    24 |  2869 |  45.0 |    14M |  16 |3489 |  39 |  39 |   0 |  1 |   0 |   0 | 6.000000e+00 | 7.000000e+00 |  16.67%| unknown
 time | node  | left  |LP iter|LP it/n|mem/heur|mdpt |vars |cons |rows |cuts |sepa|confs|strbr|  dualbound   | primalbound  |  gap   | compl. 
 12.3s|    32 |    25 |  3780 |  73.0 |    15M |  16 |3489 |  39 |  39 |   0 |  1 |   0 |   0 | 6.000000e+00 | 7.000000e+00 |  16.67%| unknown
 time | node  | left  |LP iter|LP it/n|mem/heur|mdpt |vars |cons |rows |cuts |sepa|confs|strbr|  dualbound   | primalbound  |  gap   | compl. 
 12.8s|    33 |    26 |  3813 |  71.7 |    15M |  17 |3512 |  39 |  39 |   0 |  1 |   0 |   0 | 6.000000e+00 | 7.000000e+00 |  16.67%| unknown
 time | node  | left  |LP iter|LP it/n|mem/heur|mdpt |vars |cons |rows |cuts |sepa|confs|strbr|  dualbound   | primalbound  |  gap   | compl. 
 13.4s|    34 |    25 |  3848 |  70.6 |    15M |  18 |3523 |  39 |  39 |   0 |  0 |   0 |   0 | 6.000000e+00 | 7.000000e+00 |  16.67%| unknown
 time | node  | left  |LP iter|LP it/n|mem/heur|mdpt |vars |cons |rows |cuts |sepa|confs|strbr|  dualbound   | primalbound  |  gap   | compl. 
 13.8s|    35 |    24 |  3911 |  70.4 |    15M |  18 |3536 |  39 |  39 |   0 |  0 |   0 |   0 | 6.000000e+00 | 7.000000e+00 |  16.67%| unknown
 time | node  | left  |LP iter|LP it/n|mem/heur|mdpt |vars |cons |rows |cuts |sepa|confs|strbr|  dualbound   | primalbound  |  gap   | compl. 
 14.2s|    36 |    23 |  3947 |  69.4 |    15M |  18 |3545 |  39 |  39 |   0 |  0 |   0 |   0 | 6.000000e+00 | 7.000000e+00 |  16.67%| unknown
 time | node  | left  |LP iter|LP it/n|mem/heur|mdpt |vars |cons |rows |cuts |sepa|confs|strbr|  dualbound   | primalbound  |  gap   | compl. 
 14.5s|    37 |    24 |  3959 |  67.8 |    15M |  18 |3545 |  39 |  39 |   0 |  1 |   0 |   0 | 6.000000e+00 | 7.000000e+00 |  16.67%| unknown
 time | node  | left  |LP iter|LP it/n|mem/heur|mdpt |vars |cons |rows |cuts |sepa|confs|strbr|  dualbound   | primalbound  |  gap   | compl. 
r14.8s|    38 |     0 |  3977 |  66.5 |simplero|  18 |3545 |  39 |  39 |   0 |  0 |   0 |   0 | 6.000000e+00 | 6.000000e+00 |   0.00%| 100.00%

SCIP Status        : problem is solved [optimal solution found]
Solving Time (sec) : 14.84
Solving Nodes      : 38
Primal Bound       : +6.00000000000000e+00 (2 solutions)
Dual Bound         : +6.00000000000000e+00
Gap                : 0.00 %
Running with parallel: True bidir: True symbreak: True
Number of Nodes:  39
47.40976752811073% holds
starting cheapest insertion heuristic
Heuristic without TSP improvement:  7
Heuristic without TSP improvement time:  0.1
Heuristic Sol:  7
Heuristic total time:  0.1
[[19, 11, 17, 18, 12], [25, 28, 29, 13, 3], [14, 22, 34, 4, 35], [23, 1, 36, 16, 10, 20], [26, 27, 6, 8, 2, 15], [38, 0, 31, 32, 21, 33], [37, 30, 5, 9, 24, 7]]
Instance path:  /home/htc/mghannam/SCRATCH/lccp-rust/data/at62_ftv38.npcc
Timelimit:  7200
Heuristic without TSP improvement:  7
Heuristic without TSP improvement time:  0.1
Heuristic Sol:  7
Heuristic total time:  0.3
at 1 zero_duals: 32
at1, LP obj: 7.0 n_added_paths: 645
at 1 zero_duals: 22
at1, LP obj: 7.0 n_added_paths: 331
at 1 zero_duals: 5
at1, LP obj: 7.000000000000001 n_added_paths: 511
at 1 zero_duals: 6
at1, LP obj: 6.177450980392157 n_added_paths: 526
at 1 zero_duals: 6
at1, LP obj: 5.576763485477178 n_added_paths: 234
at 1 zero_duals: 3
at1, LP obj: 5.395266939005493 n_added_paths: 93
at 1 zero_duals: 2
at1, LP obj: 5.322663067058767 n_added_paths: 94
at 1 zero_duals: 2
at1, LP obj: 5.287101248266297 n_added_paths: 12
at 1 zero_duals: 2
Switching to elementary pricing
at1, LP obj: 5.27891156462585 n_added_paths: 29
updated lowerbound from 1.0 to 5
at 1 zero_duals: 5
at1, LP obj: 5.260029717682021 n_added_paths: 3
at 1 zero_duals: 4
at1, LP obj: 5.259280089988752 n_added_paths: 4
at 1 zero_duals: 4
at1, LP obj: 5.25876993166287 n_added_paths: 1
at 1 zero_duals: 4
Switching to elementary pricing
at1, LP obj: 5.25860465116279 n_added_paths: 14
updated lowerbound from 5.0 to 6
Gap too small = 0, stopping pricing with lb = 6
Gap too small = 0, stopping pricing with lb = 6
Gap too small = 0, stopping pricing with lb = 6
Gap too small = 0, stopping pricing with lb = 6
Gap too small = 0, stopping pricing with lb = 6
Gap too small = 0, stopping pricing with lb = 6
Gap too small = 0, stopping pricing with lb = 6
Gap too small = 0, stopping pricing with lb = 6
Gap too small = 0, stopping pricing with lb = 6
Gap too small = 0, stopping pricing with lb = 6
Gap too small = 0, stopping pricing with lb = 6
Gap too small = 0, stopping pricing with lb = 6
Gap too small = 0, stopping pricing with lb = 6
Gap too small = 0, stopping pricing with lb = 6
Gap too small = 0, stopping pricing with lb = 6
Gap too small = 0, stopping pricing with lb = 6
Gap too small = 0, stopping pricing with lb = 6
at 29 zero_duals: 16
at29, LP obj: 6.571428571428571 n_added_paths: 397
at 29 zero_duals: 5
at29, LP obj: 6.160762942779291 n_added_paths: 127
Gap too small = 0, stopping pricing with lb = 6
at 36 zero_duals: 2
at36, LP obj: 6.04778156996587 n_added_paths: 28
Gap too small = 0, stopping pricing with lb = 6
Gap too small = 0, stopping pricing with lb = 6
Gap too small = 0, stopping pricing with lb = 6
Gap too small = 0, stopping pricing with lb = 6
at 39 zero_duals: 38
Switching to elementary pricing
at39, LP obj: 1e+20 n_added_paths: 1
updated lowerbound from 6.0 to 100000000000000000000
at 39 zero_duals: 37
Switching to elementary pricing
at39, LP obj: 1e+20 n_added_paths: 0
updated lowerbound from 6.0 to 100000000000000000000
at 41 zero_duals: 7
Switching to elementary pricing
at41, LP obj: 6.029411764705882 n_added_paths: 94
Gap too small = 0, stopping pricing with lb = 6
Gap too small = 0, stopping pricing with lb = 6
at 48 zero_duals: 6
at48, LP obj: 6.0606060606060606 n_added_paths: 17
at 48 zero_duals: 3
at48, LP obj: 6.045977011494252 n_added_paths: 20
at 48 zero_duals: 6
Switching to elementary pricing
at48, LP obj: 6.027777777777778 n_added_paths: 1
at 48 zero_duals: 6
Switching to elementary pricing
at48, LP obj: 6.027777777777778 n_added_paths: 0
updated lowerbound from 6.0 to 7
at 49 zero_duals: 7
at49, LP obj: 6.018817204301075 n_added_paths: 7
Gap too small = 0, stopping pricing with lb = 6
at 50 zero_duals: 6
Switching to elementary pricing
at50, LP obj: 6.0125 n_added_paths: 18
Gap too small = 0, stopping pricing with lb = 6
at 47 zero_duals: 38
Switching to elementary pricing
at47, LP obj: 1e+20 n_added_paths: 10
updated lowerbound from 6.0 to 100000000000000000000
at 47 zero_duals: 38
Switching to elementary pricing
at47, LP obj: 1e+20 n_added_paths: 9
updated lowerbound from 6.0 to 100000000000000000000
at 47 zero_duals: 38
Switching to elementary pricing
at47, LP obj: 1e+20 n_added_paths: 18
updated lowerbound from 6.0 to 100000000000000000000
at 47 zero_duals: 2
at47, LP obj: 7.7631578947368425 n_added_paths: 131
at 47 zero_duals: 10
Switching to elementary pricing
at47, LP obj: 6.82258064516129 n_added_paths: 26
updated lowerbound from 6.0 to 7
at 51 zero_duals: 34
at51, LP obj: 1e+20 n_added_paths: 42
at 51 zero_duals: 37
Switching to elementary pricing
at51, LP obj: 1e+20 n_added_paths: 0
updated lowerbound from 6.0 to 100000000000000000000
Gap too small = 0, stopping pricing with lb = 6
Gap too small = 0, stopping pricing with lb = 6
at 53 zero_duals: 10
at53, LP obj: 6.03125 n_added_paths: 11
at 53 zero_duals: 4
at53, LP obj: 6.0181818181818185 n_added_paths: 2
at 53 zero_duals: 5
Switching to elementary pricing
at53, LP obj: 6.017857142857143 n_added_paths: 2
at 53 zero_duals: 5
Switching to elementary pricing
at53, LP obj: 6.017699115044248 n_added_paths: 8
Gap too small = 0, stopping pricing with lb = 6
at 58 zero_duals: 4
at58, LP obj: 6.04 n_added_paths: 6
at 58 zero_duals: 2
at58, LP obj: 6.028645833333332 n_added_paths: 3
at 58 zero_duals: 3
Switching to elementary pricing
at58, LP obj: 6.027777777777778 n_added_paths: 2
at 58 zero_duals: 3
Switching to elementary pricing
at58, LP obj: 6.027777777777778 n_added_paths: 0
updated lowerbound from 6.0 to 7
at 59 zero_duals: 6
at59, LP obj: 6.138888888888888 n_added_paths: 9
at 59 zero_duals: 9
Switching to elementary pricing
at59, LP obj: 6.09375 n_added_paths: 3
at 59 zero_duals: 7
Switching to elementary pricing
at59, LP obj: 6.09375 n_added_paths: 1
updated lowerbound from 6.0 to 7
at 52 zero_duals: 11
Switching to elementary pricing
at52, LP obj: 6.1 n_added_paths: 4
at 52 zero_duals: 5
Switching to elementary pricing
at52, LP obj: 6.078313253012048 n_added_paths: 5
updated lowerbound from 6.0 to 7
Gap too small = 0, stopping pricing with lb = 6
Best solution found:
[16, 10, 3, 14, 6, 15, 11, 2, 16] 1.0 1.0
checking cycle [16, 10, 3, 14, 6, 15, 11, 2, 16]
[16, 10, 3, 14, 6, 15, 11, 2, 16] 571 550
[29, 4, 13, 25, 28, 29] 1.0 1.0
checking cycle [29, 4, 13, 25, 28, 29]
[29, 4, 13, 25, 28, 29] 369 336
[38, 34, 8, 35, 31, 32, 33, 38] 1.0 1.0
checking cycle [38, 34, 8, 35, 31, 32, 33, 38]
[38, 34, 8, 35, 31, 32, 33, 38] 278 262
[24, 9, 5, 18, 12, 19, 17, 7, 24] 1.0 1.0
checking cycle [24, 9, 5, 18, 12, 19, 17, 7, 24]
[24, 9, 5, 18, 12, 19, 17, 7, 24] 460 446
[27, 0, 1, 23, 20, 22, 27] 1.0 1.0
checking cycle [27, 0, 1, 23, 20, 22, 27]
[27, 0, 1, 23, 20, 22, 27] 380 380
[37, 30, 26, 36, 21, 37] 1.0 1.0
checking cycle [37, 30, 26, 36, 21, 37]
[37, 30, 26, 36, 21, 37] 298 298
